p cnf 14 119
-1 -8 0
-1 -9 0
-2 -8 0
-2 -9 0
-1 -15 0
-1 -16 0
-2 -15 0
-2 -16 0
-1 -22 0
-1 -23 0
-2 -22 0
-2 -23 0
-1 -29 0
-1 -30 0
-2 -29 0
-2 -30 0
-8 -15 0
-8 -16 0
-9 -15 0
-9 -16 0
-8 -22 0
-8 -23 0
-9 -22 0
-9 -23 0
-8 -29 0
-8 -30 0
-9 -29 0
-9 -30 0
-8 -36 0
-8 -37 0
-9 -36 0
-9 -37 0
-15 -29 0
-15 -30 0
-16 -29 0
-16 -30 0
-15 -36 0
-15 -37 0
-16 -36 0
-16 -37 0
-15 -43 0
-15 -44 0
-16 -43 0
-16 -44 0
-22 -29 0
-22 -30 0
-23 -29 0
-23 -30 0
-22 -36 0
-22 -37 0
-23 -36 0
-23 -37 0
-22 -43 0
-22 -44 0
-23 -43 0
-23 -44 0
-29 -36 0
-29 -37 0
-30 -36 0
-30 -37 0
-29 -43 0
-29 -44 0
-30 -43 0
-30 -44 0
-36 -43 0
-36 -44 0
-37 -43 0
-37 -44 0
-1 -8 0
-1 -15 0
-1 -22 0
-1 -29 0
-1 -36 0
-1 -43 0
-8 -15 0
-8 -22 0
-8 -29 0
-8 -36 0
-8 -43 0
-15 -22 0
-15 -29 0
-15 -36 0
-15 -43 0
-22 -29 0
-22 -36 0
-22 -43 0
-29 -36 0
-29 -43 0
-36 -43 0
1 8 15 22 29 36 43 0
-2 -9 0
-2 -16 0
-2 -23 0
-2 -30 0
-2 -37 0
-2 -44 0
-9 -16 0
-9 -23 0
-9 -30 0
-9 -37 0
-9 -44 0
-16 -23 0
-16 -30 0
-16 -37 0
-16 -44 0
-23 -30 0
-23 -37 0
-23 -44 0
-30 -37 0
-30 -44 0
-37 -44 0
2 9 16 23 30 37 44 0
-1 -2 0
-8 -9 0
-15 -16 0
-22 -23 0
-29 -30 0
-36 -37 0
-43 -44 0
